c nombre: 8
c densidad: 0.1
p edges 90 418
e 1 7
e 1 41
e 1 46
e 1 61
e 1 71
e 1 79
e 2 9
e 2 10
e 2 42
e 2 55
e 2 56
e 2 62
e 2 73
e 2 74
e 2 80
e 2 82
e 3 9
e 3 15
e 3 22
e 3 28
e 3 32
e 3 41
e 3 44
e 3 71
e 3 80
e 3 90
e 4 12
e 4 40
e 4 50
e 4 61
e 4 64
e 4 68
e 4 71
e 4 78
e 4 81
e 4 85
e 5 9
e 5 19
e 5 30
e 5 36
e 5 41
e 5 45
e 5 47
e 5 50
e 5 54
e 5 73
e 6 14
e 6 15
e 6 23
e 6 42
e 6 44
e 6 45
e 6 57
e 6 59
e 6 63
e 6 64
e 6 74
e 6 83
e 6 89
e 7 17
e 7 36
e 7 47
e 7 65
e 7 79
e 8 11
e 8 20
e 8 30
e 8 43
e 8 63
e 8 65
e 8 70
e 8 71
e 9 11
e 9 17
e 9 19
e 9 20
e 9 30
e 9 31
e 9 39
e 9 67
e 9 71
e 9 75
e 9 76
e 10 21
e 10 28
e 10 29
e 10 36
e 10 42
e 10 44
e 10 45
e 10 78
e 10 80
e 10 82
e 10 84
e 10 87
e 11 64
e 11 71
e 11 74
e 11 75
e 11 89
e 12 25
e 12 33
e 12 38
e 12 45
e 12 52
e 12 59
e 12 71
e 12 75
e 12 82
e 12 86
e 13 24
e 13 30
e 13 32
e 13 39
e 13 46
e 13 66
e 13 67
e 13 81
e 14 15
e 14 27
e 14 32
e 14 48
e 14 49
e 14 67
e 14 85
e 15 17
e 15 36
e 15 38
e 15 41
e 15 58
e 15 59
e 15 75
e 15 85
e 15 87
e 15 90
e 16 23
e 16 31
e 16 46
e 16 74
e 17 22
e 17 24
e 17 28
e 17 38
e 17 52
e 17 53
e 17 55
e 18 19
e 18 32
e 18 40
e 18 71
e 18 75
e 19 30
e 19 53
e 19 55
e 19 61
e 19 70
e 19 76
e 20 44
e 20 45
e 20 61
e 20 69
e 20 81
e 20 90
e 21 26
e 21 28
e 21 42
e 21 45
e 21 60
e 21 71
e 21 73
e 21 76
e 22 25
e 22 37
e 22 41
e 22 43
e 22 48
e 22 54
e 22 62
e 22 64
e 22 69
e 22 71
e 22 72
e 22 76
e 22 79
e 22 86
e 22 89
e 23 27
e 23 31
e 23 38
e 23 49
e 23 54
e 23 76
e 24 31
e 24 60
e 24 70
e 24 72
e 24 77
e 24 82
e 25 37
e 25 60
e 25 71
e 25 75
e 26 33
e 26 36
e 26 55
e 26 56
e 26 66
e 26 80
e 27 30
e 27 35
e 27 36
e 27 44
e 27 52
e 27 72
e 27 75
e 28 39
e 28 60
e 28 66
e 28 67
e 28 76
e 28 78
e 28 84
e 29 66
e 29 80
e 30 48
e 30 50
e 30 55
e 30 63
e 30 77
e 30 84
e 31 65
e 31 70
e 31 75
e 32 34
e 32 39
e 32 40
e 32 43
e 32 45
e 32 56
e 32 73
e 32 76
e 33 34
e 33 39
e 33 48
e 33 67
e 33 70
e 33 76
e 33 86
e 33 90
e 34 60
e 34 84
e 35 43
e 35 45
e 35 48
e 35 55
e 35 62
e 35 69
e 35 82
e 35 83
e 35 84
e 35 89
e 36 40
e 36 69
e 36 73
e 36 88
e 37 46
e 37 55
e 37 82
e 37 90
e 38 43
e 38 53
e 38 54
e 38 59
e 38 64
e 38 65
e 38 67
e 38 81
e 38 83
e 39 41
e 39 43
e 39 59
e 40 48
e 40 60
e 40 64
e 40 81
e 41 52
e 41 54
e 41 63
e 41 72
e 41 74
e 41 81
e 42 50
e 42 58
e 42 62
e 42 71
e 43 46
e 43 60
e 43 65
e 43 67
e 43 85
e 44 56
e 44 66
e 44 68
e 44 69
e 44 75
e 44 79
e 44 84
e 44 87
e 45 60
e 45 64
e 45 80
e 46 65
e 46 74
e 46 81
e 46 83
e 46 86
e 47 48
e 47 66
e 47 69
e 47 71
e 47 74
e 48 51
e 48 52
e 48 62
e 48 78
e 48 86
e 49 50
e 49 52
e 49 62
e 49 73
e 49 77
e 49 80
e 49 86
e 50 52
e 50 64
e 50 71
e 50 75
e 51 53
e 51 71
e 51 85
e 51 90
e 52 57
e 52 67
e 52 71
e 52 80
e 52 81
e 52 82
e 52 86
e 52 90
e 53 56
e 53 72
e 53 77
e 53 80
e 53 90
e 54 56
e 54 62
e 54 87
e 55 84
e 55 90
e 56 80
e 57 58
e 57 60
e 57 72
e 57 82
e 58 63
e 58 65
e 58 79
e 59 65
e 59 70
e 59 77
e 59 83
e 59 88
e 60 69
e 60 81
e 61 62
e 61 78
e 61 90
e 62 84
e 62 85
e 63 65
e 63 87
e 65 69
e 65 73
e 65 75
e 65 82
e 66 67
e 66 68
e 66 90
e 67 73
e 67 79
e 67 80
e 67 82
e 68 80
e 68 83
e 69 74
e 69 77
e 69 83
e 70 76
e 71 77
e 71 85
e 71 88
e 71 89
e 73 80
e 73 84
e 74 78
e 75 83
e 75 88
e 77 87
e 78 82
e 78 85
e 78 90
e 80 81
e 80 85
e 80 90
e 81 87
e 84 89
e 85 89
e 86 89
